698845
698227
697223
696673
743571
743571
743328
743328
743328
743328
675685
675685
675685
671389
671389
671389
665791
654176
654176
654176
654176
647461
638459
638334
638334
638334
635529
631415
631415
627504
627504
626491
626491
626491
624850
624850
624850
608236
608236
608236
607881
606734
606734
604215
604215
600751
600485
599531
599415
597512
592522
592522
592522
585167
585167
583030
577915
577915
577915
577915
577915
568461
568461
568461
568461
568461
568461
560617
556571
556571
556571
556067
556067
556067
556067
554617
554454
554454
554454
547861
547861
547861
545503
545503
545503
545503
544712
538137
538137
538137
538137
538137
537528
536448
536448
535513
535513
535179
535179
529195
